<instance format="XCSP3" type="CSP">
  <variables>
    <var id="x0"> 3 6 14 </var>
    <var id="x1"> 1 3 6 13 14 </var>
    <var id="x2"> 6 10 11 13 14 </var>
    <var id="x3"> 1 3 6 13 </var>
    <var id="x4"> 1 11 13 14 </var>
    <var id="x5"> 1 3 11 14 </var>
    <var id="x6"> 3 10 11 14 </var>
    <var id="x7"> 0 9 14 </var>
    <var id="x8"> 11 13 14 </var>
    <var as="x4" id="x9"/>
    <var id="x10"> 1 2 9 13 </var>
    <var id="x11"> 1 2 11 </var>
    <var id="x12"> 1 9 11 14 </var>
    <var id="x13"> 11 14 </var>
    <var id="x14"> 0 3 8 14 </var>
    <var id="x15"> 5 10 14 </var>
    <var id="x16"> 1 5 10 </var>
    <var id="x17"> 1 5 8 14 </var>
    <var id="x18"> 1 3 8 14 </var>
    <var id="x19"> 0 3 10 </var>
    <var id="x20"> 0 3 8 10 </var>
    <var id="x21"> 3 6 9 14 </var>
    <var id="x22"> 3 6 8 14 </var>
    <var id="x23"> 3 14 </var>
    <var id="x24"> 3 6 9 12 </var>
    <var id="x25"> 5 12 </var>
    <var id="x26"> 5 6 8 12 </var>
    <var id="x27"> 3 5 8 12 14 </var>
    <var id="x28"> 4 6 8 14 </var>
    <var id="x29"> 1 6 13 14 </var>
    <var id="x30"> 4 6 13 14 </var>
    <var id="x31"> 1 2 4 14 </var>
    <var id="x32"> 1 6 8 </var>
    <var id="x33"> 4 6 8 </var>
    <var id="x34"> 8 14 </var>
    <var id="x35"> 6 11 14 </var>
    <var id="x36"> 4 6 11 14 </var>
    <var id="x37"> 1..4 11 14 </var>
    <var id="x38"> 1 2 11 </var>
    <var id="x39"> 1 3 4 11 14 </var>
    <var id="x40"> 3 4 </var>
    <var id="x41"> 3 11 14 </var>
    <var id="x42"> 1 3 6 7 </var>
    <var id="x43"> 1 7 11 </var>
    <var id="x44"> 0 3 6 8 </var>
    <var id="x45"> 1 3 6 </var>
    <var id="x46"> 1 7 11 </var>
    <var id="x47"> 1 8 11 </var>
    <var id="x48"> 0 1 6 8 11 </var>
    <var id="x49"> 4 9 </var>
    <var id="x50"> 1 7 9 13 </var>
    <var id="x51"> 4 7 12 13 </var>
    <var id="x52"> 4 13 </var>
    <var id="x53"> 1 9 12 13 </var>
    <var id="x54"> 1 4 9 </var>
    <var id="x55"> 1 5 12 </var>
    <var id="x56"> 1 7 10 14 </var>
    <var id="x57"> 1 7 10 12 </var>
    <var id="x58"> 1 8 14 </var>
    <var id="x59"> 1 6 8 12 </var>
    <var id="x60"> 7 10 12 </var>
    <var id="x61"> 6..8 10 </var>
    <var id="x62"> 8 10 12 14 </var>
    <var id="x63"> 0 3 4 9 </var>
    <var id="x64"> 4 5 7 11 </var>
    <var id="x65"> 0 3 4 </var>
    <var id="x66"> 3 4 7 11 </var>
    <var id="x67"> 3 4 9 11 </var>
    <var id="x68"> 0 3 4 7 9 </var>
    <var id="x69"> 0 3 4 7 </var>
    <var id="x70"> 10..12 </var>
    <var id="x71"> 4 7 10 11 </var>
    <var id="x72"> 4 7 11 12 </var>
    <var id="x73"> 3 4 8 </var>
    <var id="x74"> 3 4 7 11 </var>
    <var id="x75"> 3 4 7 10 12 </var>
    <var id="x76"> 3 4 7 8 10 </var>
    <var id="x77"> 3 9 </var>
    <var id="x78"> 5 10 12 13 </var>
    <var id="x79"> 3 13 </var>
    <var id="x80"> 3 7 </var>
    <var id="x81"> 5 9 13 </var>
    <var id="x82"> 5 12 </var>
    <var id="x83"> 3 5 10 12 </var>
    <var id="x84"> 13 14 </var>
    <var id="x85"> 4 10 11 13 14 </var>
    <var id="x86"> 4 11..14 </var>
    <var id="x87"> 4 11 14 </var>
    <var id="x88"> 12 13 </var>
    <var id="x89"> 0 8 11 12 </var>
    <var id="x90"> 0 4 10 12 </var>
    <var id="x91"> 0 4 8 10 </var>
    <var id="x92"> 3 6 13 14 </var>
    <var id="x93"> 6 11..14 </var>
    <var id="x94"> 4 11 13 14 </var>
    <var id="x95"> 4 6 11..14 </var>
    <var id="x96"> 3 4 6 13 14 </var>
    <var id="x97"> 11 13 14 </var>
    <var id="x98"> 3 4 12 </var>
    <var id="x99"> 4 5 7 11 14 </var>
    <var id="x100"> 4 6 7 11 14 </var>
    <var id="x101"> 6 9 </var>
    <var id="x102"> 5 7 11 </var>
    <var id="x103"> 5 9 11 14 </var>
    <var id="x104"> 4 9 11 14 </var>
    <var id="x105"> 4 6 7 </var>
  </variables>
  <constraints>
    <group>
      <allDifferent> %... </allDifferent>
      <args> x0 x1 x2 x3 x4 x5 x6 </args>
      <args> x7 x8 x9 x10 x11 x12 x13 </args>
      <args> x14 x15 x16 x17 x18 x19 x20 </args>
      <args> x21 x22 x23 x24 x25 x26 x27 </args>
      <args> x28 x29 x30 x31 x32 x33 x34 </args>
      <args> x35 x36 x37 x38 x39 x40 x41 </args>
      <args> x42 x43 x44 x45 x46 x47 x48 </args>
      <args> x49 x50 x51 x52 x53 x54 x55 </args>
      <args> x56 x57 x58 x59 x60 x61 x62 </args>
      <args> x63 x64 x65 x66 x67 x68 x69 </args>
      <args> x70 x71 x72 x73 x74 x75 x76 </args>
      <args> x77 x78 x79 x80 x81 x82 x83 </args>
      <args> x84 x85 x86 x87 x88 x89 x90 x91 </args>
      <args> x92 x93 x94 x95 x96 x97 x98 </args>
      <args> x99 x100 x101 x102 x103 x104 x105 </args>
      <args> x0 x7 x14 x28 x49 x63 x77 </args>
      <args> x1 x21 x29 x42 x50 x84 x92 </args>
      <args> x2 x8 x15 x35 x70 x78 x93 </args>
      <args> x9 x43 x56 x64 x71 x85 x94 x99 </args>
      <args> x30 x36 x51 x72 x86 x95 x100 </args>
      <args> x22 x44 x52 x65 x73 x79 x96 </args>
      <args> x23 x31 x37 x66 x74 x80 x87 </args>
      <args> x3 x10 x24 x45 x53 x88 x101 </args>
      <args> x11 x16 x25 x38 x46 x57 x102 </args>
      <args> x4 x17 x47 x58 x81 x97 x103 </args>
      <args> x5 x12 x18 x39 x54 x67 x104 </args>
      <args> x26 x32 x48 x55 x59 x82 x89 </args>
      <args> x19 x40 x60 x68 x75 x90 x98 </args>
      <args> x20 x33 x61 x69 x76 x91 x105 </args>
      <args> x6 x13 x27 x34 x41 x62 x83 </args>
    </group>
  </constraints>
</instance>

